(declare-rel fail ())
(declare-rel inv2 (Int Int Int Int Int Int))
(declare-var A Int)
(declare-var B Int)
(declare-var C Int)
(declare-var D Int)
(declare-var E Int)
(declare-var F Int)
(declare-var G Int)
(declare-var H Int)
(declare-var I Int)
(declare-var J Int)
(rule (=> (and (> G C) (> C J) (= F 0) (= A B) (> B 0) (>= 72531 B))
    (inv2 G C J F B A)))
(rule (let ((a!1 (and (inv2 G C J F B A)
                (= D (+ G 1))
                (= H (+ C 3))
                (= E (+ J 2))
                (= I (ite (< G C) (+ F 1) F)))))
  (=> a!1 (inv2 D H E I B A))))
(rule (=> (and (inv2 G C J F B A) (> (- J G) A) (not (> F 0))) fail))
(query fail)

